# Solution for model F-JSSP-SDST
# Objective value = 869
B0(11) 1
B1(10) 0
B2(11) 1
B3(13) 0
B4(11) 1
B5(10) 1
B6(12) 1
B7(12) 0
B8(10) 1
B9(10) 0
B10(2) 0
B11(2) 0
B12(2) 0
B13(2) 0
B14(2) 1
B15(2) 1
B16(2) 1
B17(2) 0
B18(2) 0
B19(2) 0
B20(2) 0
B21(2) 0
B22(2) 0
B23(2) 0
B24(2) 0
B25(2) 0
C26(11) 0
C27(11) 0
C28(13) 141
C29(13) 0
C30(11) 0
C31(11) 60
C32(12) 51
C33(12) 0
C34(12) 185
C35(12) 0
C36(1) 869
